Version identifier: 20.1.0.0 | 2020-11-10 | 9bedb6d68
Tried aggregator 2 times.
MIP Presolve eliminated 2492 rows and 1334 columns.
MIP Presolve modified 6306 coefficients.
Aggregator did 238 substitutions.
Reduced MIP has 3679 rows, 2843 columns, and 12078 nonzeros.
Reduced MIP has 520 binaries, 2323 generals, 0 SOSs, and 0 indicators.
Presolve time = 0.03 sec. (14.42 ticks)
Probing fixed 80 vars, tightened 678 bounds.
Probing time = 0.01 sec. (1.46 ticks)
Tried aggregator 2 times.
Detecting symmetries...
MIP Presolve eliminated 1576 rows and 112 columns.
MIP Presolve modified 217 coefficients.
Aggregator did 18 substitutions.
Reduced MIP has 2085 rows, 2713 columns, and 6800 nonzeros.
Reduced MIP has 790 binaries, 1923 generals, 0 SOSs, and 0 indicators.
Presolve time = 0.02 sec. (9.84 ticks)
Probing time = 0.00 sec. (0.56 ticks)
Clique table members: 85.
MIP emphasis: balance optimality and feasibility.
MIP search method: dynamic search.
Parallel mode: deterministic, using up to 24 threads.
Root relaxation solution time = 0.06 sec. (6.66 ticks)

        Nodes                                         Cuts/
   Node  Left     Objective  IInf  Best Integer    Best Bound    ItCnt     Gap

*     0+    0                           45.0000        0.0000           100.00%
      0     0        0.0000    91       45.0000        0.0000      609  100.00%
*     0+    0                           18.0000        0.0000           100.00%
*     0+    0                           16.0000        0.0000           100.00%
      0     0        0.0000    96       16.0000     Cuts: 129      731  100.00%
      0     0        0.0000    55       16.0000      Cuts: 89      865  100.00%
      0     0       -0.0000    49       16.0000      Cuts: 49     1295  100.00%
*     0+    0                           13.0000        0.0000           100.00%
      0     0        0.0000    62       13.0000     Cuts: 108     1483    7.69%
*     0+    0                           12.0000       12.0000             0.00%
      0     0        cutoff             12.0000       12.0000     1483    0.00%
Elapsed time = 1.70 sec. (261.89 ticks, tree = 0.01 MB, solutions = 5)

Cover cuts applied:  12
Implied bound cuts applied:  60
Flow cuts applied:  3
Mixed integer rounding cuts applied:  27
Zero-half cuts applied:  93
Lift and project cuts applied:  8
Gomory fractional cuts applied:  21

Root node processing (before b&c):
  Real time             =    1.70 sec. (262.17 ticks)
Parallel b&c, 24 threads:
  Real time             =    0.00 sec. (0.00 ticks)
  Sync time (average)   =    0.00 sec.
  Wait time (average)   =    0.00 sec.
                          ------------
Total (root+branch&cut) =    1.70 sec. (262.17 ticks)

Solution status = Optimal
Solution LB = 12
Solution UB = 12
Runtime = 1.70837 seconds
	Command being timed: "/home/min/git_repos/CS598MEBProject/CNT-ILP/build/cnt -s 2 ./output/k8_n40/simC_c1_k8_n40_u2_s3_del04.input-left.cnp"
	User time (seconds): 23.70
	System time (seconds): 0.16
	Percent of CPU this job got: 1364%
	Elapsed (wall clock) time (h:mm:ss or m:ss): 0:01.74
	Average shared text size (kbytes): 0
	Average unshared data size (kbytes): 0
	Average stack size (kbytes): 0
	Average total size (kbytes): 0
	Maximum resident set size (kbytes): 169376
	Average resident set size (kbytes): 0
	Major (requiring I/O) page faults: 0
	Minor (reclaiming a frame) page faults: 50655
	Voluntary context switches: 7044
	Involuntary context switches: 4121
	Swaps: 0
	File system inputs: 0
	File system outputs: 16
	Socket messages sent: 0
	Socket messages received: 0
	Signals delivered: 0
	Page size (bytes): 4096
	Exit status: 0
